p cnf 722 2001
1 0
-2 0
-3 0
-4 0
-5 0
-6 0
-7 0
-8 0
-9 0
-10 0
-11 0
-12 0
-13 0
-14 0
-15 0
-16 0
-17 0
-18 0
-19 0
-20 0
-21 0
-22 0
-23 0
-24 0
-25 0
1 -26 0
-1 26 0
27 28 0
29 28 0
30 28 0
31 28 0
32 28 0
33 28 0
34 28 0
35 28 0
36 28 0
-37 0
-2 28 -38 0
2 -28 -38 0
38 -28 -2 0
2 28 38 0
-38 0
29 39 0
30 39 0
31 39 0
32 39 0
33 39 0
34 39 0
35 39 0
36 39 0
-40 0
-41 39 -42 0
41 -39 -42 0
42 -39 -41 0
41 39 42 0
-42 0
30 43 0
31 43 0
32 43 0
33 43 0
34 43 0
35 43 0
36 43 0
-44 0
-45 43 -46 0
45 -43 -46 0
46 -43 -45 0
45 43 46 0
-46 0
31 47 0
32 47 0
33 47 0
34 47 0
35 47 0
36 47 0
-48 0
-49 47 -50 0
49 -47 -50 0
50 -47 -49 0
49 47 50 0
-50 0
32 51 0
33 51 0
34 51 0
35 51 0
36 51 0
-52 0
-3 51 -53 0
3 -51 -53 0
53 -51 -3 0
3 51 53 0
-53 0
33 54 0
36 54 0
32 54 0
34 54 0
35 54 0
-55 0
-56 54 -57 0
56 -54 -57 0
57 -54 -56 0
56 54 57 0
-57 0
-58 54 -59 0
58 -54 -59 0
59 -54 -58 0
58 54 59 0
-59 0
-60 54 -61 0
60 -54 -61 0
61 -54 -60 0
60 54 61 0
-61 0
-62 54 -63 0
62 -54 -63 0
63 -54 -62 0
62 54 63 0
-63 0
64 65 0
66 65 0
67 65 0
68 65 0
69 65 0
70 65 0
71 65 0
72 65 0
73 65 0
74 65 0
-75 0
-4 65 -76 0
4 -65 -76 0
76 -65 -4 0
4 65 76 0
-76 0
66 77 0
67 77 0
68 77 0
69 77 0
70 77 0
71 77 0
72 77 0
73 77 0
74 77 0
-78 0
-79 77 -80 0
79 -77 -80 0
80 -77 -79 0
79 77 80 0
-80 0
67 81 0
68 81 0
69 81 0
70 81 0
71 81 0
72 81 0
73 81 0
74 81 0
-82 0
-83 81 -84 0
83 -81 -84 0
84 -81 -83 0
83 81 84 0
-84 0
68 85 0
69 85 0
70 85 0
71 85 0
72 85 0
73 85 0
74 85 0
-86 0
-87 85 -88 0
87 -85 -88 0
88 -85 -87 0
87 85 88 0
-88 0
69 89 0
70 89 0
71 89 0
72 89 0
73 89 0
74 89 0
-90 0
-91 89 -92 0
91 -89 -92 0
92 -89 -91 0
91 89 92 0
-92 0
70 93 0
71 93 0
72 93 0
73 93 0
74 93 0
-94 0
-95 93 -96 0
95 -93 -96 0
96 -93 -95 0
95 93 96 0
-96 0
71 97 0
72 97 0
73 97 0
74 97 0
-98 0
-99 97 -100 0
99 -97 -100 0
100 -97 -99 0
99 97 100 0
-100 0
72 101 0
73 101 0
71 101 0
74 101 0
-102 0
-103 101 -104 0
103 -101 -104 0
104 -101 -103 0
103 101 104 0
-104 0
-105 101 -106 0
105 -101 -106 0
106 -101 -105 0
105 101 106 0
-106 0
-107 101 -108 0
107 -101 -108 0
108 -101 -107 0
107 101 108 0
-108 0
109 110 0
111 110 0
112 110 0
113 110 0
114 110 0
115 110 0
116 110 0
117 110 0
118 110 0
119 110 0
120 110 0
-121 0
-5 110 -122 0
5 -110 -122 0
122 -110 -5 0
5 110 122 0
-122 0
111 123 0
112 123 0
113 123 0
114 123 0
115 123 0
116 123 0
117 123 0
118 123 0
119 123 0
120 123 0
-124 0
-125 123 -126 0
125 -123 -126 0
126 -123 -125 0
125 123 126 0
-126 0
112 127 0
113 127 0
114 127 0
115 127 0
116 127 0
117 127 0
118 127 0
119 127 0
120 127 0
-128 0
-129 127 -130 0
129 -127 -130 0
130 -127 -129 0
129 127 130 0
-130 0
113 131 0
114 131 0
115 131 0
116 131 0
117 131 0
118 131 0
119 131 0
120 131 0
-132 0
-133 131 -134 0
133 -131 -134 0
134 -131 -133 0
133 131 134 0
-134 0
114 135 0
115 135 0
116 135 0
117 135 0
118 135 0
119 135 0
120 135 0
-136 0
-137 135 -138 0
137 -135 -138 0
138 -135 -137 0
137 135 138 0
-138 0
115 139 0
116 139 0
117 139 0
118 139 0
119 139 0
120 139 0
-140 0
-141 139 -142 0
141 -139 -142 0
142 -139 -141 0
141 139 142 0
-142 0
119 143 0
120 143 0
115 143 0
116 143 0
117 143 0
118 143 0
-144 0
-145 143 -146 0
145 -143 -146 0
146 -143 -145 0
145 143 146 0
-146 0
-147 143 -148 0
147 -143 -148 0
148 -143 -147 0
147 143 148 0
-148 0
-149 143 -150 0
149 -143 -150 0
150 -143 -149 0
149 143 150 0
-150 0
-151 143 -152 0
151 -143 -152 0
152 -143 -151 0
151 143 152 0
-152 0
-153 143 -154 0
153 -143 -154 0
154 -143 -153 0
153 143 154 0
-154 0
33 155 0
36 155 0
156 155 0
157 155 0
30 155 0
31 155 0
32 155 0
34 155 0
35 155 0
-158 0
-6 155 -159 0
6 -155 -159 0
159 -155 -6 0
6 155 159 0
-159 0
33 160 0
36 160 0
157 160 0
30 160 0
31 160 0
32 160 0
34 160 0
35 160 0
-161 0
-162 160 -163 0
162 -160 -163 0
163 -160 -162 0
162 160 163 0
-163 0
164 165 0
166 165 0
167 165 0
168 165 0
169 165 0
170 165 0
-171 0
-7 165 -172 0
7 -165 -172 0
172 -165 -7 0
7 165 172 0
-172 0
166 173 0
167 173 0
168 173 0
169 173 0
170 173 0
-174 0
-175 173 -176 0
175 -173 -176 0
176 -173 -175 0
175 173 176 0
-176 0
-177 173 -178 0
177 -173 -178 0
178 -173 -177 0
177 173 178 0
-178 0
-179 173 -180 0
179 -173 -180 0
180 -173 -179 0
179 173 180 0
-180 0
-181 173 -182 0
181 -173 -182 0
182 -173 -181 0
181 173 182 0
-182 0
-183 173 -184 0
183 -173 -184 0
184 -173 -183 0
183 173 184 0
-184 0
185 186 0
187 186 0
188 186 0
189 186 0
190 186 0
191 186 0
192 186 0
193 186 0
194 186 0
195 186 0
196 186 0
197 186 0
-198 0
-8 186 -199 0
8 -186 -199 0
199 -186 -8 0
8 186 199 0
-199 0
187 200 0
188 200 0
189 200 0
190 200 0
191 200 0
192 200 0
193 200 0
194 200 0
195 200 0
196 200 0
197 200 0
-201 0
-202 200 -203 0
202 -200 -203 0
203 -200 -202 0
202 200 203 0
-203 0
188 204 0
189 204 0
190 204 0
191 204 0
192 204 0
193 204 0
194 204 0
195 204 0
196 204 0
197 204 0
-205 0
-206 204 -207 0
206 -204 -207 0
207 -204 -206 0
206 204 207 0
-207 0
189 208 0
190 208 0
191 208 0
192 208 0
193 208 0
194 208 0
195 208 0
196 208 0
197 208 0
-209 0
-210 208 -211 0
210 -208 -211 0
211 -208 -210 0
210 208 211 0
-211 0
190 212 0
191 212 0
192 212 0
193 212 0
194 212 0
195 212 0
196 212 0
197 212 0
-213 0
-214 212 -215 0
214 -212 -215 0
215 -212 -214 0
214 212 215 0
-215 0
191 216 0
192 216 0
193 216 0
194 216 0
195 216 0
196 216 0
197 216 0
-217 0
-218 216 -219 0
218 -216 -219 0
219 -216 -218 0
218 216 219 0
-219 0
192 220 0
193 220 0
194 220 0
195 220 0
196 220 0
197 220 0
-221 0
-222 220 -223 0
222 -220 -223 0
223 -220 -222 0
222 220 223 0
-223 0
193 224 0
194 224 0
195 224 0
196 224 0
192 224 0
197 224 0
-225 0
-226 224 -227 0
226 -224 -227 0
227 -224 -226 0
226 224 227 0
-227 0
-228 224 -229 0
228 -224 -229 0
229 -224 -228 0
228 224 229 0
-229 0
-230 224 -231 0
230 -224 -231 0
231 -224 -230 0
230 224 231 0
-231 0
-232 224 -233 0
232 -224 -233 0
233 -224 -232 0
232 224 233 0
-233 0
-234 224 -235 0
234 -224 -235 0
235 -224 -234 0
234 224 235 0
-235 0
236 237 0
238 237 0
239 237 0
240 237 0
241 237 0
242 237 0
243 237 0
-244 0
-9 237 -245 0
9 -237 -245 0
245 -237 -9 0
9 237 245 0
-245 0
238 246 0
239 246 0
240 246 0
241 246 0
242 246 0
243 246 0
-247 0
-248 246 -249 0
248 -246 -249 0
249 -246 -248 0
248 246 249 0
-249 0
239 250 0
240 250 0
241 250 0
242 250 0
243 250 0
-251 0
-252 250 -253 0
252 -250 -253 0
253 -250 -252 0
252 250 253 0
-253 0
240 254 0
241 254 0
242 254 0
243 254 0
-255 0
-256 254 -257 0
256 -254 -257 0
257 -254 -256 0
256 254 257 0
-257 0
241 258 0
242 258 0
243 258 0
-243 -241 -242 -258 0
-259 258 -260 0
259 -258 -260 0
260 -258 -259 0
259 258 260 0
-260 0
242 261 0
243 261 0
-243 -242 -261 0
-262 261 -263 0
262 -261 -263 0
263 -261 -262 0
262 261 263 0
-263 0
243 264 0
242 264 0
-243 -242 -264 0
-265 264 -266 0
265 -264 -266 0
266 -264 -265 0
265 264 266 0
-266 0
267 268 0
269 268 0
270 268 0
271 268 0
272 268 0
273 268 0
274 268 0
275 268 0
276 268 0
277 268 0
278 268 0
279 268 0
-280 0
-10 268 -281 0
10 -268 -281 0
281 -268 -10 0
10 268 281 0
-281 0
269 282 0
270 282 0
271 282 0
272 282 0
273 282 0
274 282 0
275 282 0
276 282 0
277 282 0
278 282 0
279 282 0
-283 0
-284 282 -285 0
284 -282 -285 0
285 -282 -284 0
284 282 285 0
-285 0
270 286 0
271 286 0
272 286 0
273 286 0
274 286 0
275 286 0
276 286 0
277 286 0
278 286 0
279 286 0
-287 0
-288 286 -289 0
288 -286 -289 0
289 -286 -288 0
288 286 289 0
-289 0
271 290 0
272 290 0
273 290 0
274 290 0
275 290 0
276 290 0
277 290 0
278 290 0
279 290 0
-291 0
-292 290 -293 0
292 -290 -293 0
293 -290 -292 0
292 290 293 0
-293 0
272 294 0
273 294 0
274 294 0
275 294 0
276 294 0
277 294 0
278 294 0
279 294 0
-295 0
-296 294 -297 0
296 -294 -297 0
297 -294 -296 0
296 294 297 0
-297 0
273 298 0
274 298 0
275 298 0
276 298 0
277 298 0
278 298 0
279 298 0
-299 0
-300 298 -301 0
300 -298 -301 0
301 -298 -300 0
300 298 301 0
-301 0
274 302 0
275 302 0
276 302 0
277 302 0
278 302 0
279 302 0
-303 0
-304 302 -305 0
304 -302 -305 0
305 -302 -304 0
304 302 305 0
-305 0
274 306 0
275 306 0
277 306 0
276 306 0
278 306 0
279 306 0
-307 0
-308 306 -309 0
308 -306 -309 0
309 -306 -308 0
308 306 309 0
-309 0
-310 306 -311 0
310 -306 -311 0
311 -306 -310 0
310 306 311 0
-311 0
-312 306 -313 0
312 -306 -313 0
313 -306 -312 0
312 306 313 0
-313 0
-314 306 -315 0
314 -306 -315 0
315 -306 -314 0
314 306 315 0
-315 0
-316 306 -317 0
316 -306 -317 0
317 -306 -316 0
316 306 317 0
-317 0
72 318 0
73 318 0
319 318 0
71 318 0
74 318 0
320 318 0
321 318 0
322 318 0
-323 0
-11 318 -324 0
11 -318 -324 0
324 -318 -11 0
11 318 324 0
-324 0
72 325 0
73 325 0
319 325 0
71 325 0
74 325 0
321 325 0
322 325 0
-326 0
-327 325 -328 0
327 -325 -328 0
328 -325 -327 0
327 325 328 0
-328 0
72 329 0
73 329 0
319 329 0
71 329 0
74 329 0
322 329 0
-330 0
-331 329 -332 0
331 -329 -332 0
332 -329 -331 0
331 329 332 0
-332 0
72 333 0
73 333 0
319 333 0
71 333 0
74 333 0
-334 0
-335 333 -336 0
335 -333 -336 0
336 -333 -335 0
335 333 336 0
-336 0
274 337 0
275 337 0
277 337 0
338 337 0
339 337 0
340 337 0
276 337 0
278 337 0
279 337 0
341 337 0
342 337 0
-343 0
-12 337 -344 0
12 -337 -344 0
344 -337 -12 0
12 337 344 0
-344 0
274 345 0
275 345 0
277 345 0
338 345 0
339 345 0
340 345 0
276 345 0
278 345 0
279 345 0
342 345 0
-346 0
-347 345 -348 0
347 -345 -348 0
348 -345 -347 0
347 345 348 0
-348 0
274 349 0
275 349 0
277 349 0
339 349 0
340 349 0
276 349 0
278 349 0
279 349 0
342 349 0
-350 0
-351 349 -352 0
351 -349 -352 0
352 -349 -351 0
351 349 352 0
-352 0
274 353 0
275 353 0
277 353 0
340 353 0
276 353 0
278 353 0
279 353 0
342 353 0
-354 0
-355 353 -356 0
355 -353 -356 0
356 -353 -355 0
355 353 356 0
-356 0
274 357 0
275 357 0
277 357 0
276 357 0
278 357 0
279 357 0
342 357 0
-358 0
-359 357 -360 0
359 -357 -360 0
360 -357 -359 0
359 357 360 0
-360 0
361 362 0
363 362 0
364 362 0
365 362 0
366 362 0
367 362 0
368 362 0
369 362 0
370 362 0
-371 0
-13 362 -372 0
13 -362 -372 0
372 -362 -13 0
13 362 372 0
-372 0
363 373 0
364 373 0
365 373 0
366 373 0
367 373 0
368 373 0
369 373 0
370 373 0
-374 0
-375 373 -376 0
375 -373 -376 0
376 -373 -375 0
375 373 376 0
-376 0
364 377 0
365 377 0
366 377 0
367 377 0
368 377 0
369 377 0
370 377 0
-378 0
-379 377 -380 0
379 -377 -380 0
380 -377 -379 0
379 377 380 0
-380 0
365 381 0
366 381 0
367 381 0
368 381 0
369 381 0
370 381 0
-382 0
-383 381 -384 0
383 -381 -384 0
384 -381 -383 0
383 381 384 0
-384 0
366 385 0
367 385 0
368 385 0
369 385 0
370 385 0
-386 0
-387 385 -388 0
387 -385 -388 0
388 -385 -387 0
387 385 388 0
-388 0
366 389 0
368 389 0
369 389 0
370 389 0
367 389 0
-390 0
-391 389 -392 0
391 -389 -392 0
392 -389 -391 0
391 389 392 0
-392 0
-393 389 -394 0
393 -389 -394 0
394 -389 -393 0
393 389 394 0
-394 0
-395 389 -396 0
395 -389 -396 0
396 -389 -395 0
395 389 396 0
-396 0
-397 389 -398 0
397 -389 -398 0
398 -389 -397 0
397 389 398 0
-398 0
399 400 0
401 400 0
402 400 0
403 400 0
404 400 0
405 400 0
406 400 0
407 400 0
408 400 0
409 400 0
410 400 0
411 400 0
-412 0
-14 400 -413 0
14 -400 -413 0
413 -400 -14 0
14 400 413 0
-413 0
401 414 0
402 414 0
403 414 0
404 414 0
405 414 0
406 414 0
407 414 0
408 414 0
409 414 0
410 414 0
411 414 0
-415 0
-416 414 -417 0
416 -414 -417 0
417 -414 -416 0
416 414 417 0
-417 0
402 418 0
403 418 0
404 418 0
405 418 0
406 418 0
407 418 0
408 418 0
409 418 0
410 418 0
411 418 0
-419 0
-420 418 -421 0
420 -418 -421 0
421 -418 -420 0
420 418 421 0
-421 0
403 422 0
404 422 0
405 422 0
406 422 0
407 422 0
408 422 0
409 422 0
410 422 0
411 422 0
-423 0
-424 422 -425 0
424 -422 -425 0
425 -422 -424 0
424 422 425 0
-425 0
404 426 0
405 426 0
406 426 0
407 426 0
408 426 0
409 426 0
410 426 0
411 426 0
-427 0
-428 426 -429 0
428 -426 -429 0
429 -426 -428 0
428 426 429 0
-429 0
405 430 0
406 430 0
407 430 0
408 430 0
409 430 0
410 430 0
411 430 0
-431 0
-432 430 -433 0
432 -430 -433 0
433 -430 -432 0
432 430 433 0
-433 0
406 434 0
407 434 0
408 434 0
409 434 0
410 434 0
411 434 0
-435 0
-436 434 -437 0
436 -434 -437 0
437 -434 -436 0
436 434 437 0
-437 0
406 438 0
407 438 0
409 438 0
410 438 0
411 438 0
408 438 0
-439 0
-440 438 -441 0
440 -438 -441 0
441 -438 -440 0
440 438 441 0
-441 0
-442 438 -443 0
442 -438 -443 0
443 -438 -442 0
442 438 443 0
-443 0
-444 438 -445 0
444 -438 -445 0
445 -438 -444 0
444 438 445 0
-445 0
-446 438 -447 0
446 -438 -447 0
447 -438 -446 0
446 438 447 0
-447 0
-448 438 -449 0
448 -438 -449 0
449 -438 -448 0
448 438 449 0
-449 0
450 451 0
452 451 0
453 451 0
454 451 0
455 451 0
456 451 0
457 451 0
458 451 0
459 451 0
460 451 0
-461 0
-15 451 -462 0
15 -451 -462 0
462 -451 -15 0
15 451 462 0
-462 0
452 463 0
453 463 0
454 463 0
455 463 0
456 463 0
457 463 0
458 463 0
459 463 0
460 463 0
-464 0
-465 463 -466 0
465 -463 -466 0
466 -463 -465 0
465 463 466 0
-466 0
453 467 0
454 467 0
455 467 0
456 467 0
457 467 0
458 467 0
459 467 0
460 467 0
-468 0
-469 467 -470 0
469 -467 -470 0
470 -467 -469 0
469 467 470 0
-470 0
454 471 0
455 471 0
456 471 0
457 471 0
458 471 0
459 471 0
460 471 0
-472 0
-473 471 -474 0
473 -471 -474 0
474 -471 -473 0
473 471 474 0
-474 0
455 475 0
456 475 0
457 475 0
458 475 0
459 475 0
460 475 0
-476 0
-477 475 -478 0
477 -475 -478 0
478 -475 -477 0
477 475 478 0
-478 0
456 479 0
457 479 0
458 479 0
459 479 0
460 479 0
-480 0
-481 479 -482 0
481 -479 -482 0
482 -479 -481 0
481 479 482 0
-482 0
457 483 0
458 483 0
459 483 0
460 483 0
-484 0
-485 483 -486 0
485 -483 -486 0
486 -483 -485 0
485 483 486 0
-486 0
458 487 0
457 487 0
459 487 0
460 487 0
-488 0
-489 487 -490 0
489 -487 -490 0
490 -487 -489 0
489 487 490 0
-490 0
-16 487 -491 0
16 -487 -491 0
491 -487 -16 0
16 487 491 0
-491 0
-492 487 -493 0
492 -487 -493 0
493 -487 -492 0
492 487 493 0
-493 0
72 494 0
73 494 0
495 494 0
496 494 0
497 494 0
498 494 0
71 494 0
74 494 0
499 494 0
-500 0
-17 494 -501 0
17 -494 -501 0
501 -494 -17 0
17 494 501 0
-501 0
72 502 0
73 502 0
496 502 0
497 502 0
498 502 0
71 502 0
74 502 0
499 502 0
-503 0
-504 502 -505 0
504 -502 -505 0
505 -502 -504 0
504 502 505 0
-505 0
72 506 0
73 506 0
497 506 0
498 506 0
71 506 0
74 506 0
499 506 0
-507 0
-508 506 -509 0
508 -506 -509 0
509 -506 -508 0
508 506 509 0
-509 0
72 510 0
73 510 0
498 510 0
71 510 0
74 510 0
499 510 0
-511 0
-512 510 -513 0
512 -510 -513 0
513 -510 -512 0
512 510 513 0
-513 0
72 514 0
73 514 0
71 514 0
74 514 0
499 514 0
-515 0
-516 514 -517 0
516 -514 -517 0
517 -514 -516 0
516 514 517 0
-517 0
518 519 0
520 519 0
521 519 0
522 519 0
523 519 0
-524 0
-18 519 -525 0
18 -519 -525 0
525 -519 -18 0
18 519 525 0
-525 0
520 526 0
521 526 0
522 526 0
523 526 0
-527 0
-528 526 -529 0
528 -526 -529 0
529 -526 -528 0
528 526 529 0
-529 0
521 530 0
522 530 0
523 530 0
-521 -523 -522 -530 0
-531 530 -532 0
531 -530 -532 0
532 -530 -531 0
531 530 532 0
-532 0
522 533 0
523 533 0
-523 -522 -533 0
-534 533 -535 0
534 -533 -535 0
535 -533 -534 0
534 533 535 0
-535 0
536 -523 0
-536 523 0
119 537 0
120 537 0
538 537 0
539 537 0
540 537 0
541 537 0
115 537 0
116 537 0
117 537 0
118 537 0
542 537 0
-543 0
-19 537 -544 0
19 -537 -544 0
544 -537 -19 0
19 537 544 0
-544 0
119 545 0
120 545 0
539 545 0
540 545 0
541 545 0
115 545 0
116 545 0
117 545 0
118 545 0
542 545 0
-546 0
-547 545 -548 0
547 -545 -548 0
548 -545 -547 0
547 545 548 0
-548 0
119 549 0
120 549 0
540 549 0
541 549 0
115 549 0
116 549 0
117 549 0
118 549 0
542 549 0
-550 0
-551 549 -552 0
551 -549 -552 0
552 -549 -551 0
551 549 552 0
-552 0
119 553 0
120 553 0
540 553 0
541 553 0
115 553 0
116 553 0
117 553 0
118 553 0
-554 0
-555 553 -556 0
555 -553 -556 0
556 -553 -555 0
555 553 556 0
-556 0
119 557 0
120 557 0
541 557 0
115 557 0
116 557 0
117 557 0
118 557 0
-558 0
-559 557 -560 0
559 -557 -560 0
560 -557 -559 0
559 557 560 0
-560 0
561 562 0
563 562 0
564 562 0
565 562 0
566 562 0
567 562 0
568 562 0
569 562 0
-570 0
-20 562 -571 0
20 -562 -571 0
571 -562 -20 0
20 562 571 0
-571 0
563 572 0
564 572 0
565 572 0
566 572 0
567 572 0
568 572 0
569 572 0
-573 0
-574 572 -575 0
574 -572 -575 0
575 -572 -574 0
574 572 575 0
-575 0
564 576 0
565 576 0
566 576 0
567 576 0
568 576 0
569 576 0
-577 0
-578 576 -579 0
578 -576 -579 0
579 -576 -578 0
578 576 579 0
-579 0
565 580 0
566 580 0
567 580 0
568 580 0
569 580 0
-581 0
-582 580 -583 0
582 -580 -583 0
583 -580 -582 0
582 580 583 0
-583 0
565 584 0
568 584 0
569 584 0
566 584 0
567 584 0
-585 0
-586 584 -587 0
586 -584 -587 0
587 -584 -586 0
586 584 587 0
-587 0
-588 584 -589 0
588 -584 -589 0
589 -584 -588 0
588 584 589 0
-589 0
-590 584 -591 0
590 -584 -591 0
591 -584 -590 0
590 584 591 0
-591 0
-592 584 -593 0
592 -584 -593 0
593 -584 -592 0
592 584 593 0
-593 0
274 594 0
275 594 0
277 594 0
595 594 0
276 594 0
278 594 0
279 594 0
-596 0
-21 594 -597 0
21 -594 -597 0
597 -594 -21 0
21 594 597 0
-597 0
72 598 0
73 598 0
319 598 0
599 598 0
600 598 0
601 598 0
602 598 0
71 598 0
74 598 0
603 598 0
-604 0
-22 598 -605 0
22 -598 -605 0
605 -598 -22 0
22 598 605 0
-605 0
72 606 0
73 606 0
319 606 0
600 606 0
601 606 0
602 606 0
71 606 0
74 606 0
603 606 0
-607 0
-608 606 -609 0
608 -606 -609 0
609 -606 -608 0
608 606 609 0
-609 0
72 610 0
73 610 0
319 610 0
600 610 0
601 610 0
602 610 0
71 610 0
74 610 0
-611 0
-612 610 -613 0
612 -610 -613 0
613 -610 -612 0
612 610 613 0
-613 0
72 614 0
73 614 0
319 614 0
601 614 0
602 614 0
71 614 0
74 614 0
-615 0
-616 614 -617 0
616 -614 -617 0
617 -614 -616 0
616 614 617 0
-617 0
72 618 0
73 618 0
319 618 0
602 618 0
71 618 0
74 618 0
-619 0
-620 618 -621 0
620 -618 -621 0
621 -618 -620 0
620 618 621 0
-621 0
72 622 0
73 622 0
623 622 0
624 622 0
625 622 0
626 622 0
71 622 0
74 622 0
627 622 0
628 622 0
-629 0
-23 622 -630 0
23 -622 -630 0
630 -622 -23 0
23 622 630 0
-630 0
72 631 0
73 631 0
624 631 0
625 631 0
626 631 0
71 631 0
74 631 0
627 631 0
628 631 0
-632 0
-633 631 -634 0
633 -631 -634 0
634 -631 -633 0
633 631 634 0
-634 0
72 635 0
73 635 0
625 635 0
626 635 0
71 635 0
74 635 0
627 635 0
628 635 0
-636 0
-637 635 -638 0
637 -635 -638 0
638 -635 -637 0
637 635 638 0
-638 0
72 639 0
73 639 0
625 639 0
626 639 0
71 639 0
74 639 0
628 639 0
-640 0
-641 639 -642 0
641 -639 -642 0
642 -639 -641 0
641 639 642 0
-642 0
72 643 0
73 643 0
626 643 0
71 643 0
74 643 0
628 643 0
-644 0
-645 643 -646 0
645 -643 -646 0
646 -643 -645 0
645 643 646 0
-646 0
72 647 0
73 647 0
71 647 0
74 647 0
628 647 0
-648 0
-649 647 -650 0
649 -647 -650 0
650 -647 -649 0
649 647 650 0
-650 0
458 651 0
652 651 0
653 651 0
457 651 0
459 651 0
460 651 0
654 651 0
655 651 0
-656 0
-24 651 -657 0
24 -651 -657 0
657 -651 -24 0
24 651 657 0
-657 0
458 658 0
652 658 0
653 658 0
457 658 0
459 658 0
460 658 0
655 658 0
-659 0
-660 658 -661 0
660 -658 -661 0
661 -658 -660 0
660 658 661 0
-661 0
458 662 0
653 662 0
457 662 0
459 662 0
460 662 0
655 662 0
-663 0
-664 662 -665 0
664 -662 -665 0
665 -662 -664 0
664 662 665 0
-665 0
458 666 0
653 666 0
457 666 0
459 666 0
460 666 0
-667 0
-668 666 -669 0
668 -666 -669 0
669 -666 -668 0
668 666 669 0
-669 0
458 670 0
671 670 0
672 670 0
673 670 0
674 670 0
675 670 0
676 670 0
457 670 0
459 670 0
460 670 0
677 670 0
678 670 0
679 670 0
-680 0
-25 670 -681 0
25 -670 -681 0
681 -670 -25 0
25 670 681 0
-681 0
458 682 0
671 682 0
672 682 0
673 682 0
674 682 0
675 682 0
676 682 0
457 682 0
459 682 0
460 682 0
678 682 0
679 682 0
-683 0
-684 682 -685 0
684 -682 -685 0
685 -682 -684 0
684 682 685 0
-685 0
458 686 0
672 686 0
673 686 0
674 686 0
675 686 0
676 686 0
457 686 0
459 686 0
460 686 0
678 686 0
679 686 0
-687 0
-688 686 -689 0
688 -686 -689 0
689 -686 -688 0
688 686 689 0
-689 0
458 690 0
673 690 0
674 690 0
675 690 0
676 690 0
457 690 0
459 690 0
460 690 0
678 690 0
679 690 0
-691 0
-692 690 -693 0
692 -690 -693 0
693 -690 -692 0
692 690 693 0
-693 0
458 694 0
674 694 0
675 694 0
676 694 0
457 694 0
459 694 0
460 694 0
678 694 0
679 694 0
-695 0
-696 694 -697 0
696 -694 -697 0
697 -694 -696 0
696 694 697 0
-697 0
458 698 0
675 698 0
676 698 0
457 698 0
459 698 0
460 698 0
678 698 0
679 698 0
-699 0
-700 698 -701 0
700 -698 -701 0
701 -698 -700 0
700 698 701 0
-701 0
458 702 0
676 702 0
457 702 0
459 702 0
460 702 0
678 702 0
679 702 0
-703 0
-704 702 -705 0
704 -702 -705 0
705 -702 -704 0
704 702 705 0
-705 0
458 706 0
676 706 0
457 706 0
459 706 0
460 706 0
679 706 0
-707 0
-708 706 -709 0
708 -706 -709 0
709 -706 -708 0
708 706 709 0
-709 0
458 710 0
457 710 0
459 710 0
460 710 0
679 710 0
-711 0
-712 710 -713 0
712 -710 -713 0
713 -710 -712 0
712 710 713 0
-713 0
26 -714 0
-714 -27 0
29 -714 0
30 -714 0
31 -714 0
32 -714 0
-714 -33 0
34 -714 0
35 -714 0
-714 -36 0
64 -714 0
66 -714 0
-714 -67 0
-714 -68 0
-714 -69 0
-714 -70 0
71 -714 0
-714 -72 0
-714 -73 0
74 -714 0
109 -714 0
111 -714 0
-714 -112 0
113 -714 0
114 -714 0
115 -714 0
116 -714 0
117 -714 0
118 -714 0
-714 -119 0
-714 -120 0
-714 -156 0
-714 -157 0
-714 -164 0
-714 -166 0
-714 -167 0
168 -714 0
169 -714 0
170 -714 0
185 -714 0
-714 -187 0
188 -714 0
-714 -189 0
190 -714 0
-714 -191 0
192 -714 0
-714 -193 0
-714 -194 0
-714 -195 0
-714 -196 0
197 -714 0
-714 -236 0
-714 -238 0
-714 -239 0
240 -714 0
241 -714 0
242 -714 0
-714 -243 0
-714 -267 0
-714 -269 0
270 -714 0
-714 -271 0
-714 -272 0
-714 -273 0
-714 -274 0
-714 -275 0
276 -714 0
-714 -277 0
278 -714 0
279 -714 0
320 -714 0
321 -714 0
322 -714 0
-714 -319 0
341 -714 0
-714 -338 0
-714 -339 0
-714 -340 0
342 -714 0
361 -714 0
-714 -363 0
-714 -364 0
365 -714 0
-714 -366 0
367 -714 0
-714 -368 0
-714 -369 0
-714 -370 0
-714 -399 0
-714 -401 0
-714 -402 0
403 -714 0
-714 -404 0
405 -714 0
-714 -406 0
-714 -407 0
408 -714 0
-714 -409 0
-714 -410 0
-714 -411 0
450 -714 0
452 -714 0
-714 -453 0
-714 -454 0
455 -714 0
-714 -456 0
457 -714 0
-714 -458 0
459 -714 0
460 -714 0
-714 -495 0
-714 -496 0
-714 -497 0
-714 -498 0
499 -714 0
-714 -518 0
-714 -520 0
-714 -521 0
522 -714 0
-714 -523 0
-714 -538 0
-714 -539 0
542 -714 0
-714 -540 0
-714 -541 0
-714 -561 0
-714 -563 0
564 -714 0
-714 -565 0
566 -714 0
567 -714 0
-714 -568 0
-714 -569 0
-714 -595 0
-714 -599 0
603 -714 0
-714 -600 0
-714 -601 0
-714 -602 0
-714 -623 0
-714 -624 0
627 -714 0
-714 -625 0
-714 -626 0
628 -714 0
654 -714 0
-714 -652 0
655 -714 0
-714 -653 0
677 -714 0
-714 -671 0
-714 -672 0
-714 -673 0
-714 -674 0
-714 -675 0
678 -714 0
-714 -676 0
679 -714 0
714 0
-715 0
-716 0
-717 0
-718 0
-719 0
-720 0
-721 0
-722 0
